20
5
0
569
54
79
16
66
58
0
992
83
3
89
58
56
0
722
15
11
49
31
20
0
825
71
99
15
68
85
0
910
77
56
89
78
53
0
1035
36
70
45
91
35
0
556
53
99
60
13
53
0
1061
38
60
23
59
41
0
901
27
5
57
49
69
0
1057
87
56
64
85
13
0
889
76
3
7
85
86
0
1110
91
61
1
9
72
0
707
14
73
63
39
8
0
932
29
75
41
41
49
0
682
12
47
63
56
47
0
904
77
14
47
40
87
0
975
32
21
26
54
58
0
1057
87
86
75
77
18
0
771
68
5
77
51
68
0
1161
94
77
40
31
28
o
2000
0.5
0.5
